100
100
31 4
29 3
47 5
49 5
45 5
29 4
27 3
31 3
26 3
41 5
36 4
36 4
31 4
47 5
33 4
26 3
48 6
44 5
49 5
27 3
42 4
46 5
49 6
30 3
47 6
39 4
30 4
46 5
28 3
46 6
27 2
33 4
30 4
35 4
30 3
37 4
38 3
28 3
27 3
43 4
41 4
47 6
44 4
37 4
35 3
26 2
25 3
47 7
29 3
26 3
42 5
25 3
28 3
35 4
26 3
45 5
44 5
33 3
34 4
38 4
47 4
42 5
29 2
34 4
37 3
31 4
43 4
45 6
39 4
25 2
38 5
35 4
45 4
43 4
37 4
41 4
38 3
48 6
25 2
28 3
35 4
46 5
39 4
45 4
45 5
33 4
36 4
45 5
31 3
33 3
27 3
26 3
28 3
34 4
35 4
48 6
41 5
32 3
25 2
43 6
